DIMACS2
80 193 235 286 231 99 250 153 28 304 137 162 318 149 47 222 138 241 243 298 101 221 296 61 6 107 274 201 206 136 268 251 183 165 297 102 198 196 31 290 228 45 85 142 236 257 119 104 252 282 24 187 112 82 207 109 175 2 64 13 57 9 308 52 160 27 40 73 226 311 254 186 123 279 21 208 145 161 144 164 78
p edge 320 696
e 0 23 1.0
e 1 57 11.0
e 1 0 1.0
e 2 16 18.0
e 2 1 48.0
e 2 128 4.0
e 2 5 35.0
e 2 21 37.0
e 2 285 11.0
e 2 121 36.0
e 2 257 24.0
e 2 152 22.0
e 3 91 1.0
e 4 200 2.0
e 5 16 1.0
e 6 246 11.0
e 6 149 4.0
e 6 18 25.0
e 6 29 28.0
e 6 129 5.0
e 6 78 8.0
e 6 82 6.0
e 6 253 4.0
e 7 197 1.0
e 8 220 1.0
e 9 217 26.0
e 9 263 6.0
e 9 31 39.0
e 9 249 46.0
e 9 183 43.0
e 10 250 32.0
e 11 168 2.0
e 12 146 5.0
e 13 92 42.0
e 13 295 8.0
e 13 188 18.0
e 13 130 19.0
e 13 52 21.0
e 14 252 28.0
e 15 214 4.0
e 16 143 2.0
e 17 290 6.0
e 18 101 22.0
e 19 74 1.0
e 20 21 26.0
e 21 150 24.0
e 21 178 12.0
e 21 96 25.0
e 21 231 19.0
e 21 190 20.0
e 21 160 36.0
e 21 119 24.0
e 22 211 1.0
e 23 169 2.0
e 24 221 10.0
e 24 66 5.0
e 24 170 23.0
e 24 286 42.0
e 24 82 29.0
e 24 104 31.0
e 24 6 26.0
e 24 267 38.0
e 24 213 18.0
e 25 94 1.0
e 26 30 3.0
e 27 244 25.0
e 27 47 23.0
e 27 35 4.0
e 27 85 12.0
e 27 192 6.0
e 27 248 32.0
e 27 147 15.0
e 27 295 44.0
e 28 272 42.0
e 28 315 33.0
e 28 54 4.0
e 28 250 44.0
e 28 78 3.0
e 28 56 22.0
e 28 27 28.0
e 28 212 15.0
e 29 27 27.0
e 30 279 17.0
e 31 184 43.0
e 31 264 44.0
e 31 19 36.0
e 31 250 18.0
e 31 251 14.0
e 31 241 37.0
e 31 21 28.0
e 32 211 1.0
e 33 53 1.0
e 34 291 1.0
e 35 271 1.0
e 36 154 1.0
e 37 186 17.0
e 38 160 45.0
e 39 65 1.0
e 40 98 25.0
e 40 283 46.0
e 40 108 7.0
e 40 73 40.0
e 40 149 5.0
e 40 265 3.0
e 40 12 32.0
e 40 107 34.0
e 40 36 17.0
e 41 196 23.0
e 41 152 2.0
e 42 315 5.0
e 43 195 1.0
e 44 4 2.0
e 45 105 45.0
e 45 164 37.0
e 45 103 40.0
e 45 13 44.0
e 45 193 19.0
e 45 161 37.0
e 45 56 20.0
e 46 4 1.0
e 47 10 42.0
e 47 296 28.0
e 47 266 30.0
e 47 73 35.0
e 47 90 21.0
e 47 241 9.0
e 47 304 14.0
e 47 78 9.0
e 48 225 1.0
e 49 125 1.0
e 50 271 2.0
e 51 164 40.0
e 52 216 31.0
e 52 15 8.0
e 52 24 11.0
e 52 171 7.0
e 52 226 9.0
e 52 130 44.0
e 52 277 14.0
e 52 64 26.0
e 53 42 1.0
e 54 59 1.0
e 55 162 34.0
e 56 165 9.0
e 57 26 3.0
e 57 250 44.0
e 57 122 40.0
e 57 123 11.0
e 57 235 28.0
e 57 48 32.0
e 57 282 10.0
e 57 93 46.0
e 58 99 20.0
e 59 271 2.0
e 60 45 30.0
e 61 28 25.0
e 61 39 45.0
e 61 316 40.0
e 61 268 26.0
e 61 223 2.0
e 61 25 1.0
e 61 228 24.0
e 61 117 42.0
e 61 279 7.0
e 62 88 3.0
e 63 268 33.0
e 64 153 7.0
e 64 51 32.0
e 64 174 41.0
e 64 119 11.0
e 64 157 5.0
e 64 57 42.0
e 64 28 13.0
e 64 297 49.0
e 65 280 1.0
e 66 206 13.0
e 67 22 1.0
e 68 215 1.0
e 69 258 2.0
e 70 175 46.0
e 71 242 1.0
e 72 306 1.0
e 73 30 24.0
e 73 110 17.0
e 73 41 16.0
e 73 149 43.0
e 73 60 24.0
e 73 299 45.0
e 73 307 49.0
e 74 294 1.0
e 75 13 12.0
e 76 311 40.0
e 77 227 2.0
e 78 234 43.0
e 78 268 36.0
e 78 82 35.0
e 78 145 40.0
e 78 175 41.0
e 78 183 14.0
e 79 133 1.0
e 80 294 2.0
e 81 126 2.0
e 82 128 2.0
e 82 31 42.0
e 82 85 26.0
e 82 32 16.0
e 82 2 37.0
e 83 145 30.0
e 84 255 1.0
e 85 314 28.0
e 85 176 37.0
e 85 311 26.0
e 85 175 16.0
e 85 130 11.0
e 85 123 20.0
e 85 132 33.0
e 86 219 2.0
e 87 222 44.0
e 88 173 2.0
e 89 209 1.0
e 90 56 1.0
e 91 6 41.0
e 92 173 2.0
e 93 111 8.0
e 94 183 14.0
e 95 260 1.0
e 96 14 1.0
e 97 127 1.0
e 98 261 1.0
e 99 14 37.0
e 99 175 42.0
e 99 292 37.0
e 99 135 38.0
e 99 221 42.0
e 99 157 23.0
e 99 102 41.0
e 100 20 1.0
e 101 69 10.0
e 101 196 47.0
e 101 231 29.0
e 101 123 9.0
e 101 193 32.0
e 101 139 38.0
e 101 49 28.0
e 101 175 18.0
e 102 185 48.0
e 102 221 46.0
e 102 85 49.0
e 102 222 5.0
e 102 93 35.0
e 102 268 30.0
e 102 160 30.0
e 102 71 43.0
e 103 278 1.0
e 104 293 2.0
e 104 33 3.0
e 104 160 35.0
e 104 72 26.0
e 104 99 36.0
e 104 207 15.0
e 104 304 27.0
e 105 92 1.0
e 106 99 36.0
e 107 244 7.0
e 107 73 14.0
e 107 136 13.0
e 107 106 47.0
e 107 116 49.0
e 107 279 17.0
e 107 221 14.0
e 107 149 5.0
e 108 161 41.0
e 108 221 48.0
e 109 74 38.0
e 109 205 12.0
e 109 40 27.0
e 109 136 35.0
e 109 282 26.0
e 109 183 12.0
e 109 286 10.0
e 109 193 39.0
e 110 162 17.0
e 111 312 1.0
e 112 201 42.0
e 112 193 7.0
e 112 228 8.0
e 112 78 27.0
e 112 44 20.0
e 112 183 47.0
e 112 165 31.0
e 112 107 9.0
e 112 45 9.0
e 113 181 1.0
e 114 65 1.0
e 115 228 41.0
e 116 37 3.0
e 117 203 1.0
e 118 226 35.0
e 119 227 40.0
e 119 313 16.0
e 119 46 18.0
e 119 308 10.0
e 119 136 12.0
e 119 47 39.0
e 120 240 2.0
e 121 155 2.0
e 122 220 2.0
e 123 158 32.0
e 123 175 31.0
e 123 52 1.0
e 123 50 9.0
e 123 221 2.0
e 123 104 39.0
e 124 189 2.0
e 125 221 33.0
e 126 201 7.0
e 127 204 1.0
e 128 68 4.0
e 129 163 1.0
e 130 207 2.0
e 131 11 2.0
e 132 240 1.0
e 133 297 24.0
e 134 155 1.0
e 135 239 1.0
e 136 3 17.0
e 136 296 34.0
e 136 317 7.0
e 136 100 43.0
e 136 187 12.0
e 136 138 13.0
e 137 14 23.0
e 137 304 28.0
e 137 61 4.0
e 137 7 25.0
e 137 101 37.0
e 137 136 18.0
e 137 64 16.0
e 137 8 49.0
e 138 125 21.0
e 138 82 28.0
e 138 112 35.0
e 138 137 36.0
e 138 232 30.0
e 138 140 11.0
e 138 221 48.0
e 138 102 39.0
e 139 17 1.0
e 140 270 1.0
e 141 302 1.0
e 142 93 31.0
e 142 108 40.0
e 142 66 28.0
e 142 67 14.0
e 142 286 35.0
e 142 109 9.0
e 142 193 17.0
e 142 160 9.0
e 142 138 2.0
e 143 242 1.0
e 144 62 2.0
e 144 141 17.0
e 144 231 38.0
e 144 198 47.0
e 144 115 44.0
e 144 119 38.0
e 144 194 21.0
e 144 142 39.0
e 145 109 12.0
e 145 120 11.0
e 145 279 3.0
e 145 311 30.0
e 145 175 29.0
e 145 123 29.0
e 145 297 7.0
e 146 180 5.0
e 147 69 1.0
e 148 151 1.0
e 149 31 4.0
e 149 254 27.0
e 149 187 29.0
e 149 199 13.0
e 150 11 1.0
e 151 229 1.0
e 152 175 7.0
e 153 197 43.0
e 153 144 7.0
e 153 179 49.0
e 153 251 21.0
e 153 145 16.0
e 153 149 9.0
e 154 95 1.0
e 155 241 46.0
e 156 14 1.0
e 157 165 25.0
e 158 154 2.0
e 159 279 49.0
e 160 302 27.0
e 160 153 16.0
e 161 131 1.0
e 161 160 40.0
e 161 250 38.0
e 161 308 21.0
e 161 282 48.0
e 161 279 12.0
e 161 286 32.0
e 162 9 17.0
e 162 268 4.0
e 162 198 1.0
e 162 206 25.0
e 162 161 28.0
e 162 290 25.0
e 162 318 4.0
e 163 169 2.0
e 164 309 45.0
e 164 162 30.0
e 164 318 1.0
e 164 165 45.0
e 164 250 16.0
e 164 201 6.0
e 164 319 2.0
e 165 86 38.0
e 165 177 23.0
e 165 179 18.0
e 165 318 8.0
e 165 183 8.0
e 166 9 40.0
e 167 196 48.0
e 168 105 3.0
e 169 231 34.0
e 170 29 2.0
e 171 74 1.0
e 172 247 1.0
e 173 34 3.0
e 174 86 1.0
e 175 81 18.0
e 176 75 1.0
e 177 13 9.0
e 178 276 1.0
e 179 206 29.0
e 180 17 2.0
e 181 294 1.0
e 182 284 1.0
e 183 303 28.0
e 183 164 31.0
e 183 186 35.0
e 184 304 7.0
e 185 245 1.0
e 186 225 27.0
e 186 165 42.0
e 186 187 42.0
e 186 9 20.0
e 186 268 38.0
e 186 279 4.0
e 186 250 41.0
e 187 13 33.0
e 187 273 25.0
e 187 183 49.0
e 187 193 38.0
e 187 196 36.0
e 188 38 2.0
e 189 80 1.0
e 190 240 3.0
e 191 34 1.0
e 192 209 1.0
e 193 20 19.0
e 193 186 8.0
e 193 196 25.0
e 194 260 1.0
e 195 210 1.0
e 196 288 7.0
e 196 198 44.0
e 196 201 19.0
e 197 293 2.0
e 198 300 16.0
e 198 187 15.0
e 198 193 40.0
e 198 201 12.0
e 198 202 31.0
e 198 318 25.0
e 199 187 45.0
e 200 169 2.0
e 201 113 20.0
e 201 206 30.0
e 201 222 15.0
e 201 241 30.0
e 202 268 10.0
e 203 260 1.0
e 204 81 2.0
e 205 280 1.0
e 206 159 28.0
e 206 268 17.0
e 206 196 26.0
e 206 198 39.0
e 206 207 33.0
e 207 15 47.0
e 207 201 37.0
e 207 250 15.0
e 207 208 20.0
e 207 221 42.0
e 207 222 19.0
e 208 77 49.0
e 208 206 40.0
e 208 222 22.0
e 208 224 44.0
e 208 226 36.0
e 208 228 20.0
e 208 231 3.0
e 208 286 33.0
e 209 62 1.0
e 210 262 3.0
e 211 181 2.0
e 212 160 37.0
e 213 284 1.0
e 214 191 1.0
e 215 37 1.0
e 216 82 15.0
e 217 119 12.0
e 218 302 1.0
e 219 87 4.0
e 220 86 2.0
e 221 143 18.0
e 222 146 17.0
e 222 311 23.0
e 222 226 47.0
e 222 228 29.0
e 223 10 1.0
e 224 22 1.0
e 225 180 1.0
e 226 217 36.0
e 226 207 7.0
e 226 228 1.0
e 226 275 47.0
e 226 269 4.0
e 227 127 1.0
e 228 13 26.0
e 228 231 5.0
e 228 233 31.0
e 229 189 1.0
e 230 236 21.0
e 231 191 32.0
e 231 222 34.0
e 232 182 1.0
e 233 209 1.0
e 234 148 1.0
e 235 296 13.0
e 235 226 18.0
e 235 208 16.0
e 235 228 17.0
e 235 304 12.0
e 235 257 12.0
e 235 286 33.0
e 235 231 6.0
e 236 79 14.0
e 236 279 28.0
e 236 235 37.0
e 236 237 27.0
e 236 241 31.0
e 236 243 32.0
e 236 250 13.0
e 236 286 20.0
e 237 114 1.0
e 238 160 42.0
e 239 83 1.0
e 240 89 2.0
e 241 55 38.0
e 241 243 49.0
e 241 251 6.0
e 241 252 4.0
e 242 63 1.0
e 243 70 2.0
e 243 311 42.0
e 243 251 3.0
e 243 297 9.0
e 243 252 42.0
e 243 254 9.0
e 243 257 14.0
e 244 229 1.0
e 245 259 2.0
e 246 45 9.0
e 247 9 40.0
e 248 151 1.0
e 249 134 1.0
e 250 153 40.0
e 251 144 28.0
e 251 252 1.0
e 251 304 27.0
e 251 236 37.0
e 251 254 4.0
e 252 76 39.0
e 252 254 12.0
e 252 274 8.0
e 252 304 37.0
e 252 257 39.0
e 253 260 1.0
e 254 218 46.0
e 254 241 40.0
e 254 257 23.0
e 254 274 29.0
e 254 279 6.0
e 255 230 1.0
e 256 18 5.0
e 257 59 49.0
e 257 251 15.0
e 257 274 16.0
e 257 282 28.0
e 258 305 1.0
e 259 256 1.0
e 260 18 9.0
e 261 234 1.0
e 262 310 1.0
e 263 89 2.0
e 264 225 1.0
e 265 166 2.0
e 266 149 7.0
e 267 168 1.0
e 268 118 5.0
e 269 214 1.0
e 270 203 1.0
e 271 9 39.0
e 272 184 3.0
e 273 318 37.0
e 274 230 31.0
e 274 243 16.0
e 274 304 13.0
e 274 318 32.0
e 274 282 26.0
e 274 286 1.0
e 275 88 1.0
e 276 59 1.0
e 277 55 1.0
e 278 238 2.0
e 279 133 22.0
e 280 63 2.0
e 281 87 4.0
e 282 58 34.0
e 282 252 11.0
e 282 286 13.0
e 282 254 10.0
e 283 43 2.0
e 284 97 1.0
e 285 68 1.0
e 286 297 45.0
e 287 247 2.0
e 288 297 22.0
e 289 26 2.0
e 290 308 49.0
e 290 287 8.0
e 290 257 40.0
e 290 296 25.0
e 290 297 43.0
e 290 274 18.0
e 290 282 19.0
e 291 23 1.0
e 292 281 1.0
e 293 196 14.0
e 294 259 1.0
e 295 158 1.0
e 296 191 2.0
e 296 289 35.0
e 296 301 47.0
e 296 297 19.0
e 296 298 20.0
e 297 303 32.0
e 298 225 10.0
e 298 290 22.0
e 298 299 18.0
e 298 304 1.0
e 298 308 25.0
e 298 311 22.0
e 298 318 25.0
e 299 175 41.0
e 300 210 5.0
e 301 214 1.0
e 302 231 12.0
e 303 153 31.0
e 304 268 48.0
e 305 155 2.0
e 306 156 1.0
e 307 211 1.0
e 308 125 42.0
e 308 296 32.0
e 308 318 46.0
e 308 311 6.0
e 309 167 1.0
e 310 239 1.0
e 311 227 36.0
e 311 318 13.0
e 312 77 1.0
e 313 297 9.0
e 314 124 1.0
e 315 137 13.0
e 316 172 1.0
e 317 270 1.0
e 318 104 14.0
e 319 84 1.0
